language ESSENCE' 1.0

letting n=5
letting seed=2
$letting cards be [1,2,3,16]
letting cards be [35,0,40,27,39]
letting   hearts      be [0,1,2,3,4,5,6,7,8,9,10,11,12]
letting   diamonds    be [13,14,15,16,17,18,19,20,21,22,23,24,25]
letting   clubs       be [26,27,28,29,30,31,32,33,34,35,35,37,38]
letting   spades      be [39,40,41,42,43,44,45,46,47,48,49,50,51]